
Gurobi 9.1.2 (linux64, gurobi_cl) logging started Fri Jul 30 13:51:55 2021

Using license file /opt/gurobi/gurobi.lic
Set parameter TimeLimit to value 600
Set parameter MIPFocus to value 1
Set parameter LogFile to value 912-MIPFocus1-Presolve2-glass4-2.log
Set parameter Presolve to value 2
Set parameter Seed to value 2

Gurobi Optimizer version 9.1.2 build v9.1.2rc0 (linux64)
Copyright (c) 2021, Gurobi Optimization, LLC

Read MPS format model from file /nfs/models/mip/glass4.mps.bz2
Reading time = 0.13 seconds
glass4: 396 rows, 322 columns, 1815 nonzeros
Thread count: 4 physical cores, 8 logical processors, using up to 8 threads
Optimize a model with 396 rows, 322 columns and 1815 nonzeros
Model fingerprint: 0x0a9d9037
Variable types: 20 continuous, 302 integer (0 binary)
Coefficient statistics:
  Matrix range     [1e+00, 8e+06]
  Objective range  [1e+00, 1e+06]
  Bounds range     [1e+00, 8e+02]
  RHS range        [1e+00, 8e+06]
Presolve removed 6 rows and 6 columns
Presolve time: 0.00s
Presolved: 390 rows, 316 columns, 1803 nonzeros
Variable types: 19 continuous, 297 integer (297 binary)
Found heuristic solution: objective 3.133356e+09
Presolved: 390 rows, 316 columns, 1803 nonzeros


Root relaxation: objective 8.000024e+08, 36 iterations, 0.00 seconds

    Nodes    |    Current Node    |     Objective Bounds      |     Work
 Expl Unexpl |  Obj  Depth IntInf | Incumbent    BestBd   Gap | It/Node Time

     0     0 8.0000e+08    0   72 3.1334e+09 8.0000e+08  74.5%     -    0s
H    0     0                    2.550016e+09 8.0000e+08  68.6%     -    0s
H    0     0                    2.500021e+09 8.0000e+08  68.0%     -    0s
H    0     0                    2.400022e+09 8.0000e+08  66.7%     -    0s
     0     0 8.0000e+08    0   72 2.4000e+09 8.0000e+08  66.7%     -    0s
     0     0 8.0000e+08    0   72 2.4000e+09 8.0000e+08  66.7%     -    0s
     0     0 8.0000e+08    0   73 2.4000e+09 8.0000e+08  66.7%     -    0s
     0     0 8.0000e+08    0   81 2.4000e+09 8.0000e+08  66.7%     -    0s
     0     0 8.0000e+08    0   83 2.4000e+09 8.0000e+08  66.7%     -    0s
H    0     0                    2.400020e+09 8.0000e+08  66.7%     -    0s
     0     0 8.0000e+08    0   81 2.4000e+09 8.0000e+08  66.7%     -    0s
H    0     0                    2.333352e+09 8.0000e+08  65.7%     -    0s
     0     0 8.0000e+08    0   98 2.3334e+09 8.0000e+08  65.7%     -    0s
     0     0 8.0000e+08    0  103 2.3334e+09 8.0000e+08  65.7%     -    0s
H    0     0                    2.100019e+09 8.0000e+08  61.9%     -    0s
     0     0 8.0000e+08    0   85 2.1000e+09 8.0000e+08  61.9%     -    0s
     0     0 8.0000e+08    0   93 2.1000e+09 8.0000e+08  61.9%     -    0s
     0     0 8.0000e+08    0   78 2.1000e+09 8.0000e+08  61.9%     -    0s
     0     2 8.0000e+08    0   76 2.1000e+09 8.0000e+08  61.9%     -    0s
H    3     8                    2.100018e+09 8.0000e+08  61.9%  16.0    0s
H  117   152                    1.900017e+09 8.0000e+08  57.9%   8.6    0s
H  423   375                    1.900016e+09 8.0000e+08  57.9%   7.1    0s
H  519   473                    1.850016e+09 8.0001e+08  56.8%   7.4    0s
H  592   514                    1.766682e+09 8.0001e+08  54.7%   7.4    0s
H  614   514                    1.766682e+09 8.0001e+08  54.7%   7.3    0s
H  637   515                    1.737516e+09 8.0001e+08  54.0%   7.3    1s
H  639   515                    1.706681e+09 8.0001e+08  53.1%   7.3    1s
H  899   779                    1.706681e+09 8.0001e+08  53.1%   7.6    2s
H 1171   869                    1.672014e+09 8.0001e+08  52.2%   7.1    2s
H 1248   882                    1.660014e+09 8.3914e+08  49.5%  11.9    3s
H 1715  1048                    1.583347e+09 8.3914e+08  47.0%  13.8    3s
H 1732  1016                    1.560014e+09 8.3914e+08  46.2%  13.9    3s
  2880  1471 1.4000e+09   33   52 1.5600e+09 9.0001e+08  42.3%  16.5    5s
  5638  3519 1.1333e+09   51   57 1.5600e+09 9.0001e+08  42.3%  18.0   10s
  7684  4895 9.0001e+08   36   49 1.5600e+09 9.0001e+08  42.3%  18.4   15s
 11267  7098 1.3000e+09   50   29 1.5600e+09 9.0001e+08  42.3%  18.8   21s
 14978  9407 1.3000e+09   36   51 1.5600e+09 9.0001e+08  42.3%  18.8   25s
 18294 11413 1.3000e+09   48   32 1.5600e+09 9.0001e+08  42.3%  19.0   30s
 24128 14600 1.0000e+09   57   38 1.5600e+09 9.0001e+08  42.3%  19.3   36s
 27511 16576 9.0001e+08   46   48 1.5600e+09 9.0001e+08  42.3%  19.3   40s
 31998 18307 9.6668e+08   52   51 1.5600e+09 9.0001e+08  42.3%  19.4   45s
 37228 21425 9.5001e+08   45   44 1.5600e+09 9.0001e+08  42.3%  19.4   50s
 42020 23815 infeasible   51      1.5600e+09 9.0001e+08  42.3%  19.5   55s
H44281 24086                    1.500014e+09 9.0001e+08  40.0%  19.6   57s
H44621 24413                    1.500014e+09 9.0001e+08  40.0%  19.7   58s
H44701 24289                    1.500012e+09 9.0001e+08  40.0%  19.7   58s
 45412 25020 9.0556e+08   45   62 1.5000e+09 9.0001e+08  40.0%  19.7   60s
H46097 25016                    1.500012e+09 9.0001e+08  40.0%  19.7   60s
 52153 27342 1.0500e+09   47   41 1.5000e+09 9.0001e+08  40.0%  20.1   65s
 56350 29245 9.3334e+08   55   43 1.5000e+09 9.0001e+08  40.0%  20.3   70s
H62772 30506                    1.433346e+09 9.0001e+08  37.2%  20.6   75s
 67460 31307 infeasible   51      1.4333e+09 9.0001e+08  37.2%  21.3   81s
 72406 32331 9.5001e+08   60   41 1.4333e+09 9.0001e+08  37.2%  21.9   86s
 76293 32902 1.1117e+09   51   44 1.4333e+09 9.0001e+08  37.2%  22.3   90s
 81449 33796 9.6043e+08   58   39 1.4333e+09 9.0001e+08  37.2%  22.8   95s
 86441 34490 1.2000e+09   42   42 1.4333e+09 9.0001e+08  37.2%  23.2  101s
 90268 35003 1.4000e+09   44   34 1.4333e+09 9.0001e+08  37.2%  23.5  105s
H90431 35001                    1.433345e+09 9.0001e+08  37.2%  23.5  105s
 95392 36006 infeasible   59      1.4333e+09 9.0001e+08  37.2%  23.9  111s
 99280 36531 infeasible   50      1.4333e+09 9.0001e+08  37.2%  24.0  115s
 103376 37078 1.1667e+09   64   27 1.4333e+09 9.0001e+08  37.2%  24.2  120s
 107376 37730 infeasible   53      1.4333e+09 9.0001e+08  37.2%  24.4  125s
 111198 38236 infeasible   49      1.4333e+09 9.0001e+08  37.2%  24.5  130s
 117213 39013 infeasible   56      1.4333e+09 9.0001e+08  37.2%  24.7  136s
 121498 39325 9.0615e+08   46   65 1.4333e+09 9.0001e+08  37.2%  24.8  140s
 125939 39721 infeasible   67      1.4333e+09 9.1284e+08  36.3%  24.9  145s
 130799 40566 1.0000e+09   61   42 1.4333e+09 9.2001e+08  35.8%  25.0  150s
 135753 41065 infeasible   72      1.4333e+09 9.2001e+08  35.8%  25.1  155s
 141084 41359 9.2501e+08   55   39 1.4333e+09 9.2501e+08  35.5%  25.3  160s
 146372 40993 9.3334e+08   47   52 1.4333e+09 9.3334e+08  34.9%  25.5  166s
 150627 41154     cutoff   40      1.4333e+09 9.4835e+08  33.8%  25.7  170s
 155998 41169 1.2333e+09   72   28 1.4333e+09 9.5001e+08  33.7%  25.8  176s
 160071 40959 infeasible   69      1.4333e+09 9.5001e+08  33.7%  25.8  180s
 163600 41580 1.0000e+09   47   51 1.4333e+09 9.6667e+08  32.6%  25.9  185s
 167567 41915 1.1000e+09   52   44 1.4333e+09 9.6668e+08  32.6%  26.0  190s
H172597 41791                    1.425014e+09 9.6668e+08  32.2%  26.0  194s
 172598 41781 1.4000e+09   49   38 1.4250e+09 9.6668e+08  32.2%  26.0  195s
H172759 41533                    1.400014e+09 9.6668e+08  31.0%  26.0  195s
 179283 41116 infeasible   49      1.4000e+09 1.0000e+09  28.6%  26.1  200s
 184298 42445 infeasible   43      1.4000e+09 1.0000e+09  28.6%  26.4  206s
 188684 43858 1.0000e+09   40   47 1.4000e+09 1.0000e+09  28.6%  26.6  211s
 193088 45035 1.0000e+09   41   54 1.4000e+09 1.0000e+09  28.6%  26.7  215s
 197263 46138 infeasible   61      1.4000e+09 1.0000e+09  28.6%  26.9  220s
*200497 47007              54    1.400013e+09 1.0000e+09  28.6%  27.1  223s
*200500 46994              54    1.400013e+09 1.0000e+09  28.6%  27.1  223s
 201638 47331 1.0500e+09   41   52 1.4000e+09 1.0000e+09  28.6%  27.1  225s
H201953 47281                    1.400013e+09 1.0000e+09  28.6%  27.1  225s
 208023 48872 1.4000e+09   65   22 1.4000e+09 1.0000e+09  28.6%  27.3  230s
 213728 50223 1.0000e+09   44   43 1.4000e+09 1.0000e+09  28.6%  27.4  235s
H215007 50182                    1.400013e+09 1.0000e+09  28.6%  27.4  235s
H215404 50286                    1.400013e+09 1.0000e+09  28.6%  27.4  236s
H215978 50153                    1.400013e+09 1.0000e+09  28.6%  27.5  236s
 218851 51077 1.4000e+09   48   41 1.4000e+09 1.0000e+09  28.6%  27.5  240s
 224280 52195 1.4000e+09   48   32 1.4000e+09 1.0000e+09  28.6%  27.7  245s
 231000 53377 infeasible   48      1.4000e+09 1.0000e+09  28.6%  27.8  250s
 237007 54188 1.0158e+09   53   46 1.4000e+09 1.0000e+09  28.6%  28.0  255s
 241485 54795 1.0889e+09   44   60 1.4000e+09 1.0000e+09  28.6%  28.1  260s
 248377 55770 1.1000e+09   45   57 1.4000e+09 1.0000e+09  28.6%  28.2  265s
 254702 56442 infeasible   42      1.4000e+09 1.0000e+09  28.6%  28.3  270s
 259983 56954 infeasible   61      1.4000e+09 1.0000e+09  28.6%  28.4  275s
 264302 57350 1.3333e+09   56   39 1.4000e+09 1.0000e+09  28.6%  28.5  280s
 271778 58108 1.0000e+09   44   53 1.4000e+09 1.0000e+09  28.6%  28.6  285s
 278182 58659 1.3867e+09   53   35 1.4000e+09 1.0000e+09  28.6%  28.6  290s
H279557 44772                    1.266680e+09 1.0000e+09  21.1%  28.6  291s
H280730 41002                    1.200013e+09 1.0000e+09  16.7%  28.6  292s
 290177 31876 infeasible   49      1.2000e+09 1.0000e+09  16.7%  28.2  295s

Cutting planes:
  Gomory: 56
  Cover: 5
  Implied bound: 48
  MIR: 77
  Flow cover: 369
  RLT: 178
  Relax-and-lift: 149

Explored 317969 nodes (8474638 simplex iterations) in 298.96 seconds
Thread count was 8 (of 8 available processors)

Solution count 10: 1.20001e+09 1.26668e+09 1.40001e+09 ... 1.43335e+09

Optimal solution found (tolerance 1.00e-04)
Best objective 1.200012600000e+09, best bound 1.200000555748e+09, gap 0.0010%
